% seed = 3783975

mint = 58;
% maxt = 208;

nActs = 42;
dur = [0,1,10,10,3,4,7,1,1,2,7,2,3,2,2,10,1,3,1,1,9,4,5,6,8,10,3,7,7,10,2,10,9,8,3,7,6,2,5,10,6,0];

nSkills = 4;
sreq = [| 0,0,0,0,
	| 3,0,2,1,
	| 0,6,3,4,
	| 0,3,3,3,
	| 4,0,2,3,
	| 5,0,4,5,
	| 4,3,0,4,
	| 4,3,0,6,
	| 1,0,4,4,
	| 0,3,3,5,
	| 5,0,2,4,
	| 0,3,5,4,
	| 5,4,0,3,
	| 3,0,7,6,
	| 1,0,1,5,
	| 0,2,7,6,
	| 3,0,7,5,
	| 5,3,3,0,
	| 2,4,5,0,
	| 6,5,0,5,
	| 3,7,0,3,
	| 6,0,7,2,
	| 5,6,2,0,
	| 3,4,3,0,
	| 5,4,5,0,
	| 0,6,4,5,
	| 5,5,0,3,
	| 5,3,0,3,
	| 4,0,4,3,
	| 6,5,0,6,
	| 4,7,0,6,
	| 2,0,3,2,
	| 0,1,5,7,
	| 3,3,6,0,
	| 3,0,4,4,
	| 3,0,4,1,
	| 5,2,6,0,
	| 4,0,4,3,
	| 0,3,5,3,
	| 4,0,7,5,
	| 0,3,4,1,
	| 0,0,0,0, |];

nResources = 38;
mastery = [| false,false,true,true,
	| true,true,false,true,
	| false,false,true,false,
	| false,false,false,true,
	| false,false,false,true,
	| false,true,true,true,
	| false,true,false,false,
	| false,false,true,true,
	| true,false,true,false,
	| true,false,false,false,
	| false,false,true,false,
	| true,true,false,true,
	| false,true,true,true,
	| false,true,false,true,
	| true,true,false,true,
	| true,false,true,false,
	| false,false,true,true,
	| true,false,false,true,
	| false,true,true,false,
	| true,true,false,false,
	| false,false,false,true,
	| true,true,true,false,
	| true,true,false,false,
	| false,true,false,false,
	| false,false,true,false,
	| true,false,false,true,
	| false,true,false,false,
	| false,true,true,false,
	| false,false,true,true,
	| false,false,true,true,
	| true,true,true,false,
	| false,false,true,true,
	| false,true,false,true,
	| false,true,true,false,
	| true,false,true,true,
	| false,false,true,false,
	| false,false,true,false,
	| false,true,true,true, |];

nPrecs = 73;
pred = [1,1,1,2,2,3,3,4,4,4,5,5,5,6,6,6,7,7,7,8,8,9,9,9,10,11,11,11,12,12,12,13,13,14,14,14,15,16,16,17,18,19,20,20,21,21,22,22,22,23,24,24,25,26,27,27,27,28,29,30,31,32,33,34,34,35,36,37,38,38,39,40,41];
succ = [2,3,4,18,29,29,5,9,10,6,19,21,22,12,7,8,18,29,14,11,36,37,21,24,15,33,19,13,21,37,26,26,23,34,37,16,39,17,31,28,20,35,33,27,34,36,25,38,24,31,33,32,40,34,35,36,30,32,30,31,39,41,41,35,39,38,40,38,41,40,42,42,42];

nUnrels = 488;
unpred = [2,2,2,2,2,2,2,2,2,2,2,2,2,2,2,2,2,2,2,2,2,2,2,2,2,2,3,3,3,3,3,3,3,3,3,3,3,3,3,3,3,3,3,3,3,3,4,4,4,5,5,5,5,5,5,5,5,5,5,5,5,5,5,5,5,5,5,5,5,5,5,6,6,6,6,6,6,7,7,7,7,7,7,7,7,7,7,7,7,7,7,8,8,8,8,8,8,8,8,8,8,8,8,8,8,8,8,8,8,8,9,9,9,9,9,9,9,9,9,9,9,9,9,9,9,9,9,9,9,9,10,10,10,10,10,10,10,10,10,10,10,10,10,10,10,10,10,10,10,10,10,10,10,10,10,10,10,10,10,11,11,11,11,11,11,11,11,11,11,11,11,11,11,11,11,11,11,12,12,12,12,12,12,12,12,12,12,12,12,12,12,12,12,12,12,12,13,13,13,13,13,13,13,13,13,13,13,13,13,13,13,13,13,13,13,14,14,14,14,14,14,14,14,14,14,14,14,14,14,14,15,15,15,15,15,15,15,15,15,15,15,15,15,15,15,15,15,15,15,15,15,15,15,15,15,16,16,16,16,16,16,16,16,16,16,16,16,16,16,16,16,16,16,16,17,17,17,17,17,17,17,17,17,17,17,17,17,17,17,17,17,17,17,17,17,18,18,18,18,18,18,18,18,18,18,18,18,19,19,19,19,19,19,19,19,19,19,19,19,19,19,19,19,19,19,20,20,20,20,20,20,20,20,20,20,20,21,21,21,21,21,21,21,21,21,21,21,21,21,22,22,22,22,22,22,22,22,22,22,22,22,23,23,23,23,23,23,23,23,23,23,23,23,23,23,23,23,24,24,24,24,24,24,24,24,24,24,24,24,24,24,25,25,25,25,25,25,25,25,25,25,25,25,25,25,25,26,26,26,26,26,26,26,26,26,27,27,27,27,27,27,28,28,28,28,28,28,28,28,28,28,28,29,29,29,29,29,29,29,29,29,30,30,30,30,30,30,30,30,30,31,31,31,31,31,31,31,31,31,32,32,32,32,32,32,32,32,33,33,33,33,33,33,33,34,34,35,35,35,36,36,36,36,37,38,39,39,40];
unsucc = [3,4,5,6,7,8,9,10,11,12,13,14,15,16,17,19,21,22,23,24,25,26,28,32,34,37,4,6,7,8,9,10,11,12,13,14,15,16,17,18,20,23,26,27,28,37,5,22,25,6,7,8,9,10,11,12,13,14,15,16,17,18,20,23,26,27,28,29,30,31,37,9,10,15,22,24,25,8,9,10,11,12,13,15,19,21,22,23,24,25,26,9,10,12,14,15,16,17,18,20,21,22,24,25,27,28,29,30,32,37,10,11,12,13,14,15,16,17,18,19,20,22,23,25,26,27,28,29,30,31,11,12,13,14,16,17,18,19,20,21,22,23,24,25,26,27,28,29,30,31,32,33,34,35,36,37,38,40,41,12,14,15,16,17,18,20,21,22,24,25,27,28,29,30,32,36,37,13,14,15,16,17,18,19,20,22,23,24,25,27,28,29,30,31,32,33,14,15,16,17,18,19,20,21,22,24,25,27,28,29,30,32,33,36,37,15,18,19,20,21,22,23,24,25,26,27,29,30,33,36,16,17,18,19,20,21,22,23,24,25,26,27,28,29,30,31,32,33,34,35,36,37,38,40,41,18,19,20,21,22,23,24,25,26,27,29,30,33,34,35,36,37,38,40,18,19,20,21,22,23,24,25,26,27,29,30,31,33,34,35,36,37,38,39,40,19,21,22,23,24,25,26,28,29,32,34,37,20,21,22,23,24,25,26,27,28,29,30,31,32,33,34,36,37,39,21,22,23,24,25,26,28,29,32,34,37,22,23,24,25,26,27,28,29,30,31,32,33,37,23,26,27,28,29,30,31,34,35,36,37,39,24,25,26,27,28,29,30,32,33,34,35,36,37,38,40,41,25,26,27,28,29,30,31,34,35,36,37,38,39,40,26,27,28,29,30,31,32,33,34,35,36,37,38,39,41,27,28,29,30,31,32,33,36,37,28,29,32,33,34,37,29,30,31,33,34,35,36,37,38,39,40,32,33,34,35,36,37,38,40,41,32,33,34,35,36,37,38,40,41,32,33,34,35,36,37,38,40,41,33,34,35,36,37,38,39,40,34,35,36,37,38,39,40,36,37,36,37,39,37,38,39,41,39,39,40,41,41];

USEFUL_RES = [{},
	{1,2,3,4,5,6,8,9,10,11,12,13,14,15,16,17,18,19,20,21,22,23,25,26,28,29,30,31,32,33,34,35,36,37,38},
	{1,2,3,4,5,6,7,8,9,11,12,13,14,15,16,17,18,19,20,21,22,23,24,25,26,27,28,29,30,31,32,33,34,35,36,37,38},
	{1,2,3,4,5,6,7,8,9,11,12,13,14,15,16,17,18,19,20,21,22,23,24,25,26,27,28,29,30,31,32,33,34,35,36,37,38},
	{1,2,3,4,5,6,8,9,10,11,12,13,14,15,16,17,18,19,20,21,22,23,25,26,28,29,30,31,32,33,34,35,36,37,38},
	{1,2,3,4,5,6,8,9,10,11,12,13,14,15,16,17,18,19,20,21,22,23,25,26,28,29,30,31,32,33,34,35,36,37,38},
	{1,2,4,5,6,7,8,9,10,12,13,14,15,16,17,18,19,20,21,22,23,24,26,27,28,29,30,31,32,33,34,35,38},
	{1,2,4,5,6,7,8,9,10,12,13,14,15,16,17,18,19,20,21,22,23,24,26,27,28,29,30,31,32,33,34,35,38},
	{1,2,3,4,5,6,8,9,10,11,12,13,14,15,16,17,18,19,20,21,22,23,25,26,28,29,30,31,32,33,34,35,36,37,38},
	{1,2,3,4,5,6,7,8,9,11,12,13,14,15,16,17,18,19,20,21,22,23,24,25,26,27,28,29,30,31,32,33,34,35,36,37,38},
	{1,2,3,4,5,6,8,9,10,11,12,13,14,15,16,17,18,19,20,21,22,23,25,26,28,29,30,31,32,33,34,35,36,37,38},
	{1,2,3,4,5,6,7,8,9,11,12,13,14,15,16,17,18,19,20,21,22,23,24,25,26,27,28,29,30,31,32,33,34,35,36,37,38},
	{1,2,4,5,6,7,8,9,10,12,13,14,15,16,17,18,19,20,21,22,23,24,26,27,28,29,30,31,32,33,34,35,38},
	{1,2,3,4,5,6,8,9,10,11,12,13,14,15,16,17,18,19,20,21,22,23,25,26,28,29,30,31,32,33,34,35,36,37,38},
	{1,2,3,4,5,6,8,9,10,11,12,13,14,15,16,17,18,19,20,21,22,23,25,26,28,29,30,31,32,33,34,35,36,37,38},
	{1,2,3,4,5,6,7,8,9,11,12,13,14,15,16,17,18,19,20,21,22,23,24,25,26,27,28,29,30,31,32,33,34,35,36,37,38},
	{1,2,3,4,5,6,8,9,10,11,12,13,14,15,16,17,18,19,20,21,22,23,25,26,28,29,30,31,32,33,34,35,36,37,38},
	{1,2,3,6,7,8,9,10,11,12,13,14,15,16,17,18,19,20,22,23,24,25,26,27,28,29,30,31,32,33,34,35,36,37,38},
	{1,2,3,6,7,8,9,10,11,12,13,14,15,16,17,18,19,20,22,23,24,25,26,27,28,29,30,31,32,33,34,35,36,37,38},
	{1,2,4,5,6,7,8,9,10,12,13,14,15,16,17,18,19,20,21,22,23,24,26,27,28,29,30,31,32,33,34,35,38},
	{1,2,4,5,6,7,8,9,10,12,13,14,15,16,17,18,19,20,21,22,23,24,26,27,28,29,30,31,32,33,34,35,38},
	{1,2,3,4,5,6,8,9,10,11,12,13,14,15,16,17,18,19,20,21,22,23,25,26,28,29,30,31,32,33,34,35,36,37,38},
	{1,2,3,6,7,8,9,10,11,12,13,14,15,16,17,18,19,20,22,23,24,25,26,27,28,29,30,31,32,33,34,35,36,37,38},
	{1,2,3,6,7,8,9,10,11,12,13,14,15,16,17,18,19,20,22,23,24,25,26,27,28,29,30,31,32,33,34,35,36,37,38},
	{1,2,3,6,7,8,9,10,11,12,13,14,15,16,17,18,19,20,22,23,24,25,26,27,28,29,30,31,32,33,34,35,36,37,38},
	{1,2,3,4,5,6,7,8,9,11,12,13,14,15,16,17,18,19,20,21,22,23,24,25,26,27,28,29,30,31,32,33,34,35,36,37,38},
	{1,2,4,5,6,7,8,9,10,12,13,14,15,16,17,18,19,20,21,22,23,24,26,27,28,29,30,31,32,33,34,35,38},
	{1,2,4,5,6,7,8,9,10,12,13,14,15,16,17,18,19,20,21,22,23,24,26,27,28,29,30,31,32,33,34,35,38},
	{1,2,3,4,5,6,8,9,10,11,12,13,14,15,16,17,18,19,20,21,22,23,25,26,28,29,30,31,32,33,34,35,36,37,38},
	{1,2,4,5,6,7,8,9,10,12,13,14,15,16,17,18,19,20,21,22,23,24,26,27,28,29,30,31,32,33,34,35,38},
	{1,2,4,5,6,7,8,9,10,12,13,14,15,16,17,18,19,20,21,22,23,24,26,27,28,29,30,31,32,33,34,35,38},
	{1,2,3,4,5,6,8,9,10,11,12,13,14,15,16,17,18,19,20,21,22,23,25,26,28,29,30,31,32,33,34,35,36,37,38},
	{1,2,3,4,5,6,7,8,9,11,12,13,14,15,16,17,18,19,20,21,22,23,24,25,26,27,28,29,30,31,32,33,34,35,36,37,38},
	{1,2,3,6,7,8,9,10,11,12,13,14,15,16,17,18,19,20,22,23,24,25,26,27,28,29,30,31,32,33,34,35,36,37,38},
	{1,2,3,4,5,6,8,9,10,11,12,13,14,15,16,17,18,19,20,21,22,23,25,26,28,29,30,31,32,33,34,35,36,37,38},
	{1,2,3,4,5,6,8,9,10,11,12,13,14,15,16,17,18,19,20,21,22,23,25,26,28,29,30,31,32,33,34,35,36,37,38},
	{1,2,3,6,7,8,9,10,11,12,13,14,15,16,17,18,19,20,22,23,24,25,26,27,28,29,30,31,32,33,34,35,36,37,38},
	{1,2,3,4,5,6,8,9,10,11,12,13,14,15,16,17,18,19,20,21,22,23,25,26,28,29,30,31,32,33,34,35,36,37,38},
	{1,2,3,4,5,6,7,8,9,11,12,13,14,15,16,17,18,19,20,21,22,23,24,25,26,27,28,29,30,31,32,33,34,35,36,37,38},
	{1,2,3,4,5,6,8,9,10,11,12,13,14,15,16,17,18,19,20,21,22,23,25,26,28,29,30,31,32,33,34,35,36,37,38},
	{1,2,3,4,5,6,7,8,9,11,12,13,14,15,16,17,18,19,20,21,22,23,24,25,26,27,28,29,30,31,32,33,34,35,36,37,38},
	{}];

POTENTIAL_ACT = [{2,3,4,5,6,7,8,9,10,11,12,13,14,15,16,17,18,19,20,21,22,23,24,25,26,27,28,29,30,31,32,33,34,35,36,37,38,39,40,41},
	{2,3,4,5,6,7,8,9,10,11,12,13,14,15,16,17,18,19,20,21,22,23,24,25,26,27,28,29,30,31,32,33,34,35,36,37,38,39,40,41},
	{2,3,4,5,6,9,10,11,12,14,15,16,17,18,19,22,23,24,25,26,29,32,33,34,35,36,37,38,39,40,41},
	{2,3,4,5,6,7,8,9,10,11,12,13,14,15,16,17,20,21,22,26,27,28,29,30,31,32,33,35,36,38,39,40,41},
	{2,3,4,5,6,7,8,9,10,11,12,13,14,15,16,17,20,21,22,26,27,28,29,30,31,32,33,35,36,38,39,40,41},
	{2,3,4,5,6,7,8,9,10,11,12,13,14,15,16,17,18,19,20,21,22,23,24,25,26,27,28,29,30,31,32,33,34,35,36,37,38,39,40,41},
	{3,4,7,8,10,12,13,16,18,19,20,21,23,24,25,26,27,28,30,31,33,34,37,39,41},
	{2,3,4,5,6,7,8,9,10,11,12,13,14,15,16,17,18,19,20,21,22,23,24,25,26,27,28,29,30,31,32,33,34,35,36,37,38,39,40,41},
	{2,3,4,5,6,7,8,9,10,11,12,13,14,15,16,17,18,19,20,21,22,23,24,25,26,27,28,29,30,31,32,33,34,35,36,37,38,39,40,41},
	{2,5,6,7,8,9,11,13,14,15,17,18,19,20,21,22,23,24,25,27,28,29,30,31,32,34,35,36,37,38,40},
	{2,3,4,5,6,9,10,11,12,14,15,16,17,18,19,22,23,24,25,26,29,32,33,34,35,36,37,38,39,40,41},
	{2,3,4,5,6,7,8,9,10,11,12,13,14,15,16,17,18,19,20,21,22,23,24,25,26,27,28,29,30,31,32,33,34,35,36,37,38,39,40,41},
	{2,3,4,5,6,7,8,9,10,11,12,13,14,15,16,17,18,19,20,21,22,23,24,25,26,27,28,29,30,31,32,33,34,35,36,37,38,39,40,41},
	{2,3,4,5,6,7,8,9,10,11,12,13,14,15,16,17,18,19,20,21,22,23,24,25,26,27,28,29,30,31,32,33,34,35,36,37,38,39,40,41},
	{2,3,4,5,6,7,8,9,10,11,12,13,14,15,16,17,18,19,20,21,22,23,24,25,26,27,28,29,30,31,32,33,34,35,36,37,38,39,40,41},
	{2,3,4,5,6,7,8,9,10,11,12,13,14,15,16,17,18,19,20,21,22,23,24,25,26,27,28,29,30,31,32,33,34,35,36,37,38,39,40,41},
	{2,3,4,5,6,7,8,9,10,11,12,13,14,15,16,17,18,19,20,21,22,23,24,25,26,27,28,29,30,31,32,33,34,35,36,37,38,39,40,41},
	{2,3,4,5,6,7,8,9,10,11,12,13,14,15,16,17,18,19,20,21,22,23,24,25,26,27,28,29,30,31,32,33,34,35,36,37,38,39,40,41},
	{2,3,4,5,6,7,8,9,10,11,12,13,14,15,16,17,18,19,20,21,22,23,24,25,26,27,28,29,30,31,32,33,34,35,36,37,38,39,40,41},
	{2,3,4,5,6,7,8,9,10,11,12,13,14,15,16,17,18,19,20,21,22,23,24,25,26,27,28,29,30,31,32,33,34,35,36,37,38,39,40,41},
	{2,3,4,5,6,7,8,9,10,11,12,13,14,15,16,17,20,21,22,26,27,28,29,30,31,32,33,35,36,38,39,40,41},
	{2,3,4,5,6,7,8,9,10,11,12,13,14,15,16,17,18,19,20,21,22,23,24,25,26,27,28,29,30,31,32,33,34,35,36,37,38,39,40,41},
	{2,3,4,5,6,7,8,9,10,11,12,13,14,15,16,17,18,19,20,21,22,23,24,25,26,27,28,29,30,31,32,33,34,35,36,37,38,39,40,41},
	{3,4,7,8,10,12,13,16,18,19,20,21,23,24,25,26,27,28,30,31,33,34,37,39,41},
	{2,3,4,5,6,9,10,11,12,14,15,16,17,18,19,22,23,24,25,26,29,32,33,34,35,36,37,38,39,40,41},
	{2,3,4,5,6,7,8,9,10,11,12,13,14,15,16,17,18,19,20,21,22,23,24,25,26,27,28,29,30,31,32,33,34,35,36,37,38,39,40,41},
	{3,4,7,8,10,12,13,16,18,19,20,21,23,24,25,26,27,28,30,31,33,34,37,39,41},
	{2,3,4,5,6,7,8,9,10,11,12,13,14,15,16,17,18,19,20,21,22,23,24,25,26,27,28,29,30,31,32,33,34,35,36,37,38,39,40,41},
	{2,3,4,5,6,7,8,9,10,11,12,13,14,15,16,17,18,19,20,21,22,23,24,25,26,27,28,29,30,31,32,33,34,35,36,37,38,39,40,41},
	{2,3,4,5,6,7,8,9,10,11,12,13,14,15,16,17,18,19,20,21,22,23,24,25,26,27,28,29,30,31,32,33,34,35,36,37,38,39,40,41},
	{2,3,4,5,6,7,8,9,10,11,12,13,14,15,16,17,18,19,20,21,22,23,24,25,26,27,28,29,30,31,32,33,34,35,36,37,38,39,40,41},
	{2,3,4,5,6,7,8,9,10,11,12,13,14,15,16,17,18,19,20,21,22,23,24,25,26,27,28,29,30,31,32,33,34,35,36,37,38,39,40,41},
	{2,3,4,5,6,7,8,9,10,11,12,13,14,15,16,17,18,19,20,21,22,23,24,25,26,27,28,29,30,31,32,33,34,35,36,37,38,39,40,41},
	{2,3,4,5,6,7,8,9,10,11,12,13,14,15,16,17,18,19,20,21,22,23,24,25,26,27,28,29,30,31,32,33,34,35,36,37,38,39,40,41},
	{2,3,4,5,6,7,8,9,10,11,12,13,14,15,16,17,18,19,20,21,22,23,24,25,26,27,28,29,30,31,32,33,34,35,36,37,38,39,40,41},
	{2,3,4,5,6,9,10,11,12,14,15,16,17,18,19,22,23,24,25,26,29,32,33,34,35,36,37,38,39,40,41},
	{2,3,4,5,6,9,10,11,12,14,15,16,17,18,19,22,23,24,25,26,29,32,33,34,35,36,37,38,39,40,41},
	{2,3,4,5,6,7,8,9,10,11,12,13,14,15,16,17,18,19,20,21,22,23,24,25,26,27,28,29,30,31,32,33,34,35,36,37,38,39,40,41}];
